(set-logic QF_LRA)
(declare-fun dur_make_treatment@1 () Real)
(declare-fun fluent_robot_at_r0_p0@0 () Bool)
(declare-fun fluent_robot_at_r0_p1@0 () Bool)
(declare-fun t@1 () Real)
(declare-fun fluent_robot_free_r0@0 () Bool)
(declare-fun fluent_pallet_at_plt0_p0@0 () Bool)
(declare-fun fluent_pallet_at_plt1_p0@0 () Bool)
(declare-fun fluent_pallet_at_plt0_p1@0 () Bool)
(declare-fun parameter_make_treatment_t@1 () Real)
(declare-fun fluent_pallet_at_plt1_p1@0 () Bool)
(declare-fun parameter_make_treatment_pallet@1 () Real)
(declare-fun fluent_battery_level_r0@0 () Real)
(declare-fun fluent_position_free_p0@0 () Bool)
(declare-fun fluent_position_free_p1@0 () Bool)
(declare-fun parameter_make_treatment_r@1 () Real)
(declare-fun parameter_make_treatment_pos@1 () Real)
(declare-fun fluent_robot_has_r0_plt0@0 () Bool)
(declare-fun fluent_robot_has_r0_plt1@0 () Bool)
(declare-fun fluent_ready_plt0_p0_t0@0 () Bool)
(declare-fun fluent_ready_plt1_p0_t0@0 () Bool)
(declare-fun fluent_ready_plt0_p1_t0@0 () Bool)
(declare-fun fluent_ready_plt1_p1_t0@0 () Bool)
(declare-fun fluent_ready_plt0_p0_t1@0 () Bool)
(declare-fun fluent_ready_plt1_p0_t1@0 () Bool)
(declare-fun fluent_ready_plt0_p1_t1@0 () Bool)
(declare-fun fluent_ready_plt1_p1_t1@0 () Bool)
(declare-fun fluent_treated_plt0_t0@0 () Bool)
(declare-fun fluent_treated_plt1_t0@0 () Bool)
(declare-fun fluent_treated_plt0_t1@0 () Bool)
(declare-fun fluent_treated_plt1_t1@0 () Bool)
(declare-fun act_move@1 () Bool)
(declare-fun parameter_move_topos@1 () Real)
(declare-fun parameter_move_frompos@1 () Real)
(declare-fun parameter_move_r@1 () Real)
(declare-fun act_make_treatment@1 () Bool)
(declare-fun fluent_robot_at_r0_p0@1 () Bool)
(declare-fun fluent_robot_at_r0_p1@1 () Bool)
(declare-fun fluent_battery_level_r0@1 () Real)
(declare-fun act_load@1 () Bool)
(declare-fun parameter_load_t@1 () Real)
(declare-fun parameter_load_pos@1 () Real)
(declare-fun parameter_load_pallet@1 () Real)
(declare-fun parameter_load_r@1 () Real)
(declare-fun fluent_robot_free_r0@1 () Bool)
(declare-fun fluent_ready_plt0_p0_t0@1 () Bool)
(declare-fun fluent_ready_plt1_p0_t0@1 () Bool)
(declare-fun fluent_ready_plt0_p1_t0@1 () Bool)
(declare-fun fluent_ready_plt1_p1_t0@1 () Bool)
(declare-fun fluent_ready_plt0_p0_t1@1 () Bool)
(declare-fun fluent_ready_plt1_p0_t1@1 () Bool)
(declare-fun fluent_ready_plt0_p1_t1@1 () Bool)
(declare-fun fluent_ready_plt1_p1_t1@1 () Bool)
(declare-fun fluent_pallet_at_plt0_p0@1 () Bool)
(declare-fun fluent_pallet_at_plt1_p0@1 () Bool)
(declare-fun fluent_pallet_at_plt0_p1@1 () Bool)
(declare-fun fluent_pallet_at_plt1_p1@1 () Bool)
(declare-fun fluent_robot_has_r0_plt0@1 () Bool)
(declare-fun fluent_robot_has_r0_plt1@1 () Bool)
(declare-fun fluent_treated_plt0_t0@1 () Bool)
(declare-fun fluent_treated_plt1_t0@1 () Bool)
(declare-fun fluent_treated_plt0_t1@1 () Bool)
(declare-fun fluent_treated_plt1_t1@1 () Bool)
(declare-fun fluent_position_free_p0@1 () Bool)
(declare-fun fluent_position_free_p1@1 () Bool)
(declare-fun act_load_at_depot@1 () Bool)
(declare-fun parameter_load_at_depot_pos@1 () Real)
(declare-fun parameter_load_at_depot_r@1 () Real)
(declare-fun parameter_load_at_depot_pallet@1 () Real)
(declare-fun act_unload_at_depot@1 () Bool)
(declare-fun parameter_unload_at_depot_pos@1 () Real)
(declare-fun parameter_unload_at_depot_r@1 () Real)
(declare-fun parameter_unload_at_depot_pallet@1 () Real)
(assert (let ((.def_0 (= parameter_load_pallet@1 4.0))) (let ((.def_1 (= parameter_load_pallet@1 3.0))) (let ((.def_2 (or .def_1 .def_0))) (let ((.def_3 (= parameter_load_pos@1 2.0))) (let ((.def_4 (= parameter_load_pos@1 1.0))) (let ((.def_5 (or .def_4 .def_3))) (let ((.def_6 (= parameter_unload_at_depot_pallet@1 4.0))) (let ((.def_7 (= parameter_unload_at_depot_pallet@1 3.0))) (let ((.def_8 (or .def_7 .def_6))) (let ((.def_9 (= parameter_load_t@1 6.0))) (let ((.def_10 (= parameter_load_t@1 5.0))) (let ((.def_11 (or .def_10 .def_9))) (let ((.def_12 (= parameter_unload_at_depot_r@1 0.0))) (let ((.def_13 (= parameter_unload_at_depot_pos@1 2.0))) (let ((.def_14 (= parameter_unload_at_depot_pos@1 1.0))) (let ((.def_15 (or .def_14 .def_13))) (let ((.def_16 (<= fluent_battery_level_r0@1 100.0))) (let ((.def_17 (<= 0.0 fluent_battery_level_r0@1))) (let ((.def_18 (= parameter_load_at_depot_pallet@1 4.0))) (let ((.def_19 (= parameter_load_at_depot_pallet@1 3.0))) (let ((.def_20 (or .def_19 .def_18))) (let ((.def_21 (= parameter_move_r@1 0.0))) (let ((.def_22 (= parameter_load_at_depot_r@1 0.0))) (let ((.def_23 (= parameter_move_frompos@1 2.0))) (let ((.def_24 (= parameter_move_frompos@1 1.0))) (let ((.def_25 (or .def_24 .def_23))) (let ((.def_26 (= parameter_load_at_depot_pos@1 2.0))) (let ((.def_27 (= parameter_load_at_depot_pos@1 1.0))) (let ((.def_28 (or .def_27 .def_26))) (let ((.def_29 (= parameter_move_topos@1 2.0))) (let ((.def_30 (= parameter_move_topos@1 1.0))) (let ((.def_31 (or .def_30 .def_29))) (let ((.def_32 (= parameter_make_treatment_pos@1 2.0))) (let ((.def_33 (= parameter_make_treatment_pos@1 1.0))) (let ((.def_34 (or .def_33 .def_32))) (let ((.def_35 (= parameter_make_treatment_r@1 0.0))) (let ((.def_36 (= parameter_make_treatment_pallet@1 4.0))) (let ((.def_37 (= parameter_make_treatment_pallet@1 3.0))) (let ((.def_38 (or .def_37 .def_36))) (let ((.def_39 (= parameter_make_treatment_t@1 6.0))) (let ((.def_40 (= parameter_make_treatment_t@1 5.0))) (let ((.def_41 (or .def_40 .def_39))) (let ((.def_42 (= parameter_load_r@1 0.0))) (let ((.def_43 (and act_move@1 true .def_21))) (let ((.def_44 (= fluent_battery_level_r0@0 fluent_battery_level_r0@1))) (let ((.def_45 (not .def_44))) (let ((.def_46 (=> .def_45 .def_43))) (let ((.def_47 (and act_make_treatment@1 true .def_36 .def_32))) (let ((.def_48 (and act_unload_at_depot@1 true .def_6 .def_13))) (let ((.def_49 (and .def_48 .def_47))) (let ((.def_50 (not .def_49))) (let ((.def_51 (and act_load_at_depot@1 true .def_18 .def_26))) (let ((.def_52 (and .def_51 .def_47))) (let ((.def_53 (not .def_52))) (let ((.def_54 (and .def_51 .def_48))) (let ((.def_55 (not .def_54))) (let ((.def_56 (and act_load@1 true .def_0 .def_3))) (let ((.def_57 (and .def_56 .def_47))) (let ((.def_58 (not .def_57))) (let ((.def_59 (and .def_56 .def_48))) (let ((.def_60 (not .def_59))) (let ((.def_61 (and .def_56 .def_51))) (let ((.def_62 (not .def_61))) (let ((.def_63 (or .def_56 .def_51 .def_48 .def_47))) (let ((.def_64 (= fluent_pallet_at_plt1_p1@0 fluent_pallet_at_plt1_p1@1))) (let ((.def_65 (not .def_64))) (let ((.def_66 (=> .def_65 .def_63))) (let ((.def_67 (and act_make_treatment@1 true .def_37 .def_32))) (let ((.def_68 (and act_unload_at_depot@1 true .def_7 .def_13))) (let ((.def_69 (and .def_68 .def_67))) (let ((.def_70 (not .def_69))) (let ((.def_71 (and act_load_at_depot@1 true .def_19 .def_26))) (let ((.def_72 (and .def_71 .def_67))) (let ((.def_73 (not .def_72))) (let ((.def_74 (and .def_71 .def_68))) (let ((.def_75 (not .def_74))) (let ((.def_76 (and act_load@1 true .def_1 .def_3))) (let ((.def_77 (and .def_76 .def_67))) (let ((.def_78 (not .def_77))) (let ((.def_79 (and .def_76 .def_68))) (let ((.def_80 (not .def_79))) (let ((.def_81 (and .def_76 .def_71))) (let ((.def_82 (not .def_81))) (let ((.def_83 (or .def_76 .def_71 .def_68 .def_67))) (let ((.def_84 (= fluent_pallet_at_plt0_p1@0 fluent_pallet_at_plt0_p1@1))) (let ((.def_85 (not .def_84))) (let ((.def_86 (=> .def_85 .def_83))) (let ((.def_87 (and act_make_treatment@1 true .def_36 .def_33))) (let ((.def_88 (and act_unload_at_depot@1 true .def_6 .def_14))) (let ((.def_89 (and .def_88 .def_87))) (let ((.def_90 (not .def_89))) (let ((.def_91 (and act_load_at_depot@1 true .def_18 .def_27))) (let ((.def_92 (and .def_91 .def_87))) (let ((.def_93 (not .def_92))) (let ((.def_94 (and .def_91 .def_88))) (let ((.def_95 (not .def_94))) (let ((.def_96 (and act_load@1 true .def_0 .def_4))) (let ((.def_97 (and .def_96 .def_87))) (let ((.def_98 (not .def_97))) (let ((.def_99 (and .def_96 .def_88))) (let ((.def_100 (not .def_99))) (let ((.def_101 (and .def_96 .def_91))) (let ((.def_102 (not .def_101))) (let ((.def_103 (or .def_96 .def_91 .def_88 .def_87))) (let ((.def_104 (= fluent_pallet_at_plt1_p0@0 fluent_pallet_at_plt1_p0@1))) (let ((.def_105 (not .def_104))) (let ((.def_106 (=> .def_105 .def_103))) (let ((.def_107 (and act_make_treatment@1 true .def_37 .def_33))) (let ((.def_108 (and act_unload_at_depot@1 true .def_7 .def_14))) (let ((.def_109 (and .def_108 .def_107))) (let ((.def_110 (not .def_109))) (let ((.def_111 (and act_load_at_depot@1 true .def_19 .def_27))) (let ((.def_112 (and .def_111 .def_107))) (let ((.def_113 (not .def_112))) (let ((.def_114 (and .def_111 .def_108))) (let ((.def_115 (not .def_114))) (let ((.def_116 (and act_load@1 true .def_1 .def_4))) (let ((.def_117 (and .def_116 .def_107))) (let ((.def_118 (not .def_117))) (let ((.def_119 (and .def_116 .def_108))) (let ((.def_120 (not .def_119))) (let ((.def_121 (and .def_116 .def_111))) (let ((.def_122 (not .def_121))) (let ((.def_123 (or .def_116 .def_111 .def_108 .def_107))) (let ((.def_124 (= fluent_pallet_at_plt0_p0@0 fluent_pallet_at_plt0_p0@1))) (let ((.def_125 (not .def_124))) (let ((.def_126 (=> .def_125 .def_123))) (let ((.def_127 (and act_load@1 true .def_0 .def_9))) (let ((.def_128 (= fluent_treated_plt1_t1@0 fluent_treated_plt1_t1@1))) (let ((.def_129 (not .def_128))) (let ((.def_130 (=> .def_129 .def_127))) (let ((.def_131 (and act_load@1 true .def_1 .def_9))) (let ((.def_132 (= fluent_treated_plt0_t1@0 fluent_treated_plt0_t1@1))) (let ((.def_133 (not .def_132))) (let ((.def_134 (=> .def_133 .def_131))) (let ((.def_135 (and act_load@1 true .def_0 .def_10))) (let ((.def_136 (= fluent_treated_plt1_t0@0 fluent_treated_plt1_t0@1))) (let ((.def_137 (not .def_136))) (let ((.def_138 (=> .def_137 .def_135))) (let ((.def_139 (and act_load@1 true .def_1 .def_10))) (let ((.def_140 (= fluent_treated_plt0_t0@0 fluent_treated_plt0_t0@1))) (let ((.def_141 (not .def_140))) (let ((.def_142 (=> .def_141 .def_139))) (let ((.def_143 (and act_make_treatment@1 true .def_32))) (let ((.def_144 (and act_load@1 true .def_3))) (let ((.def_145 (and .def_144 .def_143))) (let ((.def_146 (not .def_145))) (let ((.def_147 (or .def_144 .def_143))) (let ((.def_148 (= fluent_position_free_p1@0 fluent_position_free_p1@1))) (let ((.def_149 (not .def_148))) (let ((.def_150 (=> .def_149 .def_147))) (let ((.def_151 (and act_make_treatment@1 true .def_33))) (let ((.def_152 (and act_load@1 true .def_4))) (let ((.def_153 (and .def_152 .def_151))) (let ((.def_154 (not .def_153))) (let ((.def_155 (or .def_152 .def_151))) (let ((.def_156 (= fluent_position_free_p0@0 fluent_position_free_p0@1))) (let ((.def_157 (not .def_156))) (let ((.def_158 (=> .def_157 .def_155))) (let ((.def_159 (+ t@1 2.0))) (let ((.def_160 (= t@1 .def_159))) (let ((.def_161 (and act_make_treatment@1 true .def_160 .def_36 .def_32 .def_39))) (let ((.def_162 (and act_load@1 true .def_0 .def_3 .def_9))) (let ((.def_163 (and .def_162 .def_161))) (let ((.def_164 (not .def_163))) (let ((.def_165 (or .def_162 .def_161))) (let ((.def_166 (= fluent_ready_plt1_p1_t1@0 fluent_ready_plt1_p1_t1@1))) (let ((.def_167 (not .def_166))) (let ((.def_168 (=> .def_167 .def_165))) (let ((.def_169 (and act_make_treatment@1 true .def_160 .def_37 .def_32 .def_39))) (let ((.def_170 (and act_load@1 true .def_1 .def_3 .def_9))) (let ((.def_171 (and .def_170 .def_169))) (let ((.def_172 (not .def_171))) (let ((.def_173 (or .def_170 .def_169))) (let ((.def_174 (= fluent_ready_plt0_p1_t1@0 fluent_ready_plt0_p1_t1@1))) (let ((.def_175 (not .def_174))) (let ((.def_176 (=> .def_175 .def_173))) (let ((.def_177 (and act_make_treatment@1 true .def_160 .def_36 .def_33 .def_39))) (let ((.def_178 (and act_load@1 true .def_0 .def_4 .def_9))) (let ((.def_179 (and .def_178 .def_177))) (let ((.def_180 (not .def_179))) (let ((.def_181 (or .def_178 .def_177))) (let ((.def_182 (= fluent_ready_plt1_p0_t1@0 fluent_ready_plt1_p0_t1@1))) (let ((.def_183 (not .def_182))) (let ((.def_184 (=> .def_183 .def_181))) (let ((.def_185 (and act_make_treatment@1 true .def_160 .def_37 .def_33 .def_39))) (let ((.def_186 (and act_load@1 true .def_1 .def_4 .def_9))) (let ((.def_187 (and .def_186 .def_185))) (let ((.def_188 (not .def_187))) (let ((.def_189 (or .def_186 .def_185))) (let ((.def_190 (= fluent_ready_plt0_p0_t1@0 fluent_ready_plt0_p0_t1@1))) (let ((.def_191 (not .def_190))) (let ((.def_192 (=> .def_191 .def_189))) (let ((.def_193 (and act_make_treatment@1 true .def_160 .def_36 .def_32 .def_40))) (let ((.def_194 (and act_load@1 true .def_0 .def_3 .def_10))) (let ((.def_195 (and .def_194 .def_193))) (let ((.def_196 (not .def_195))) (let ((.def_197 (or .def_194 .def_193))) (let ((.def_198 (= fluent_ready_plt1_p1_t0@0 fluent_ready_plt1_p1_t0@1))) (let ((.def_199 (not .def_198))) (let ((.def_200 (=> .def_199 .def_197))) (let ((.def_201 (and act_make_treatment@1 true .def_160 .def_37 .def_32 .def_40))) (let ((.def_202 (and act_load@1 true .def_1 .def_3 .def_10))) (let ((.def_203 (and .def_202 .def_201))) (let ((.def_204 (not .def_203))) (let ((.def_205 (or .def_202 .def_201))) (let ((.def_206 (= fluent_ready_plt0_p1_t0@0 fluent_ready_plt0_p1_t0@1))) (let ((.def_207 (not .def_206))) (let ((.def_208 (=> .def_207 .def_205))) (let ((.def_209 (and act_make_treatment@1 true .def_160 .def_36 .def_33 .def_40))) (let ((.def_210 (and act_load@1 true .def_0 .def_4 .def_10))) (let ((.def_211 (and .def_210 .def_209))) (let ((.def_212 (not .def_211))) (let ((.def_213 (or .def_210 .def_209))) (let ((.def_214 (= fluent_ready_plt1_p0_t0@0 fluent_ready_plt1_p0_t0@1))) (let ((.def_215 (not .def_214))) (let ((.def_216 (=> .def_215 .def_213))) (let ((.def_217 (and act_make_treatment@1 true .def_160 .def_37 .def_33 .def_40))) (let ((.def_218 (and act_load@1 true .def_1 .def_4 .def_10))) (let ((.def_219 (and .def_218 .def_217))) (let ((.def_220 (not .def_219))) (let ((.def_221 (or .def_218 .def_217))) (let ((.def_222 (= fluent_ready_plt0_p0_t0@0 fluent_ready_plt0_p0_t0@1))) (let ((.def_223 (not .def_222))) (let ((.def_224 (=> .def_223 .def_221))) (let ((.def_225 (and act_make_treatment@1 true .def_35 .def_36))) (let ((.def_226 (and act_unload_at_depot@1 true .def_12 .def_6))) (let ((.def_227 (and .def_226 .def_225))) (let ((.def_228 (not .def_227))) (let ((.def_229 (and act_load_at_depot@1 true .def_22 .def_18))) (let ((.def_230 (and .def_229 .def_225))) (let ((.def_231 (not .def_230))) (let ((.def_232 (and .def_229 .def_226))) (let ((.def_233 (not .def_232))) (let ((.def_234 (and act_load@1 true .def_42 .def_0))) (let ((.def_235 (and .def_234 .def_225))) (let ((.def_236 (not .def_235))) (let ((.def_237 (and .def_234 .def_226))) (let ((.def_238 (not .def_237))) (let ((.def_239 (and .def_234 .def_229))) (let ((.def_240 (not .def_239))) (let ((.def_241 (or .def_234 .def_229 .def_226 .def_225))) (let ((.def_242 (= fluent_robot_has_r0_plt1@0 fluent_robot_has_r0_plt1@1))) (let ((.def_243 (not .def_242))) (let ((.def_244 (=> .def_243 .def_241))) (let ((.def_245 (and act_make_treatment@1 true .def_35 .def_37))) (let ((.def_246 (and act_unload_at_depot@1 true .def_12 .def_7))) (let ((.def_247 (and .def_246 .def_245))) (let ((.def_248 (not .def_247))) (let ((.def_249 (and act_load_at_depot@1 true .def_22 .def_19))) (let ((.def_250 (and .def_249 .def_245))) (let ((.def_251 (not .def_250))) (let ((.def_252 (and .def_249 .def_246))) (let ((.def_253 (not .def_252))) (let ((.def_254 (and act_load@1 true .def_42 .def_1))) (let ((.def_255 (and .def_254 .def_245))) (let ((.def_256 (not .def_255))) (let ((.def_257 (and .def_254 .def_246))) (let ((.def_258 (not .def_257))) (let ((.def_259 (and .def_254 .def_249))) (let ((.def_260 (not .def_259))) (let ((.def_261 (or .def_254 .def_249 .def_246 .def_245))) (let ((.def_262 (= fluent_robot_has_r0_plt0@0 fluent_robot_has_r0_plt0@1))) (let ((.def_263 (not .def_262))) (let ((.def_264 (=> .def_263 .def_261))) (let ((.def_265 (and act_make_treatment@1 true .def_35))) (let ((.def_266 (and act_unload_at_depot@1 true .def_12))) (let ((.def_267 (and .def_266 .def_265))) (let ((.def_268 (not .def_267))) (let ((.def_269 (and act_load_at_depot@1 true .def_22))) (let ((.def_270 (and .def_269 .def_265))) (let ((.def_271 (not .def_270))) (let ((.def_272 (and .def_269 .def_266))) (let ((.def_273 (not .def_272))) (let ((.def_274 (and act_load@1 true .def_42))) (let ((.def_275 (and .def_274 .def_265))) (let ((.def_276 (not .def_275))) (let ((.def_277 (and .def_274 .def_266))) (let ((.def_278 (not .def_277))) (let ((.def_279 (and .def_274 .def_269))) (let ((.def_280 (not .def_279))) (let ((.def_281 (or .def_274 .def_269 .def_266 .def_265))) (let ((.def_282 (= fluent_robot_free_r0@0 fluent_robot_free_r0@1))) (let ((.def_283 (not .def_282))) (let ((.def_284 (=> .def_283 .def_281))) (let ((.def_285 (and act_move@1 true .def_21 .def_23))) (let ((.def_286 (and act_move@1 true .def_21 .def_29))) (let ((.def_287 (and .def_286 .def_285))) (let ((.def_288 (not .def_287))) (let ((.def_289 (or .def_286 .def_285))) (let ((.def_290 (= fluent_robot_at_r0_p1@0 fluent_robot_at_r0_p1@1))) (let ((.def_291 (not .def_290))) (let ((.def_292 (=> .def_291 .def_289))) (let ((.def_293 (and act_move@1 true .def_21 .def_24))) (let ((.def_294 (and act_move@1 true .def_21 .def_30))) (let ((.def_295 (and .def_294 .def_293))) (let ((.def_296 (not .def_295))) (let ((.def_297 (or .def_294 .def_293))) (let ((.def_298 (= fluent_robot_at_r0_p0@0 fluent_robot_at_r0_p0@1))) (let ((.def_299 (not .def_298))) (let ((.def_300 (=> .def_299 .def_297))) (let ((.def_301 (and .def_300 .def_296 .def_292 .def_288 .def_284 .def_280 .def_278 .def_276 .def_273 .def_271 .def_268 .def_264 .def_260 .def_258 .def_256 .def_253 .def_251 .def_248 .def_244 .def_240 .def_238 .def_236 .def_233 .def_231 .def_228 .def_224 .def_220 .def_216 .def_212 .def_208 .def_204 .def_200 .def_196 .def_192 .def_188 .def_184 .def_180 .def_176 .def_172 .def_168 .def_164 .def_158 .def_154 .def_150 .def_146 .def_142 .def_138 .def_134 .def_130 .def_126 .def_122 .def_120 .def_118 .def_115 .def_113 .def_110 .def_106 .def_102 .def_100 .def_98 .def_95 .def_93 .def_90 .def_86 .def_82 .def_80 .def_78 .def_75 .def_73 .def_70 .def_66 .def_62 .def_60 .def_58 .def_55 .def_53 .def_50 .def_46))) (let ((.def_302 (= t@1 t@1))) (let ((.def_303 (and act_load@1 act_unload_at_depot@1 .def_302))) (let ((.def_304 (not .def_303))) (let ((.def_305 (and act_move@1 act_load@1 .def_302))) (let ((.def_306 (not .def_305))) (let ((.def_307 (and act_load_at_depot@1 act_make_treatment@1 .def_302))) (let ((.def_308 (not .def_307))) (let ((.def_309 (+ t@1 dur_make_treatment@1))) (let ((.def_310 (= t@1 .def_309))) (let ((.def_311 (and act_load@1 act_make_treatment@1 .def_310))) (let ((.def_312 (not .def_311))) (let ((.def_313 (and act_load@1 act_make_treatment@1 .def_302))) (let ((.def_314 (not .def_313))) (let ((.def_315 (and act_make_treatment@1 act_unload_at_depot@1 .def_302))) (let ((.def_316 (not .def_315))) (let ((.def_317 (and act_move@1 act_unload_at_depot@1 .def_302))) (let ((.def_318 (not .def_317))) (let ((.def_319 (and act_load@1 act_load_at_depot@1 .def_302))) (let ((.def_320 (not .def_319))) (let ((.def_321 (and act_move@1 act_make_treatment@1 .def_302))) (let ((.def_322 (not .def_321))) (let ((.def_323 (= .def_159 t@1))) (let ((.def_324 (and act_make_treatment@1 act_load@1 .def_323))) (let ((.def_325 (not .def_324))) (let ((.def_326 (and act_load_at_depot@1 act_unload_at_depot@1 .def_302))) (let ((.def_327 (not .def_326))) (let ((.def_328 (and act_move@1 act_load_at_depot@1 .def_302))) (let ((.def_329 (not .def_328))) (let ((.def_330 (and .def_329 .def_327 .def_325 .def_322 .def_320 .def_318 .def_316 .def_314 .def_312 .def_308 .def_306 .def_304))) (let ((.def_331 (<= 0.0 t@1))) (let ((.def_332 (and .def_36 .def_33 .def_40))) (let ((.def_333 (ite .def_332 fluent_ready_plt1_p0_t0@1 fluent_ready_plt0_p0_t0@1))) (let ((.def_334 (and .def_37 .def_32 .def_40))) (let ((.def_335 (ite .def_334 fluent_ready_plt0_p1_t0@1 .def_333))) (let ((.def_336 (and .def_36 .def_32 .def_40))) (let ((.def_337 (ite .def_336 fluent_ready_plt1_p1_t0@1 .def_335))) (let ((.def_338 (and .def_37 .def_33 .def_39))) (let ((.def_339 (ite .def_338 fluent_ready_plt0_p0_t1@1 .def_337))) (let ((.def_340 (and .def_36 .def_33 .def_39))) (let ((.def_341 (ite .def_340 fluent_ready_plt1_p0_t1@1 .def_339))) (let ((.def_342 (and .def_37 .def_32 .def_39))) (let ((.def_343 (ite .def_342 fluent_ready_plt0_p1_t1@1 .def_341))) (let ((.def_344 (and .def_36 .def_32 .def_39))) (let ((.def_345 (ite .def_344 fluent_ready_plt1_p1_t1@1 .def_343))) (let ((.def_346 (= .def_345 true))) (let ((.def_347 (=> true .def_346))) (let ((.def_348 (and .def_160 .def_347))) (let ((.def_349 (= fluent_robot_free_r0@1 true))) (let ((.def_350 (=> true .def_349))) (let ((.def_351 (and .def_36 .def_33))) (let ((.def_352 (ite .def_351 fluent_pallet_at_plt1_p0@1 fluent_pallet_at_plt0_p0@1))) (let ((.def_353 (and .def_37 .def_32))) (let ((.def_354 (ite .def_353 fluent_pallet_at_plt0_p1@1 .def_352))) (let ((.def_355 (and .def_36 .def_32))) (let ((.def_356 (ite .def_355 fluent_pallet_at_plt1_p1@1 .def_354))) (let ((.def_357 (= .def_356 true))) (let ((.def_358 (=> true .def_357))) (let ((.def_359 (and .def_35 .def_36))) (let ((.def_360 (ite .def_359 fluent_robot_has_r0_plt1@1 fluent_robot_has_r0_plt0@1))) (let ((.def_361 (= .def_360 false))) (let ((.def_362 (=> true .def_361))) (let ((.def_363 (ite .def_32 fluent_position_free_p1@1 fluent_position_free_p0@1))) (let ((.def_364 (= .def_363 false))) (let ((.def_365 (=> true .def_364))) (let ((.def_366 (and .def_302 .def_365 .def_362 .def_358 .def_350))) (let ((.def_367 (ite .def_32 fluent_position_free_p1@0 fluent_position_free_p0@0))) (let ((.def_368 (and .def_36 .def_40))) (let ((.def_369 (ite .def_368 fluent_treated_plt1_t0@0 fluent_treated_plt0_t0@0))) (let ((.def_370 (and .def_37 .def_39))) (let ((.def_371 (ite .def_370 fluent_treated_plt0_t1@0 .def_369))) (let ((.def_372 (and .def_36 .def_39))) (let ((.def_373 (ite .def_372 fluent_treated_plt1_t1@0 .def_371))) (let ((.def_374 (and .def_373 .def_367))) (let ((.def_375 (<= .def_309 t@1))) (let ((.def_376 (< (- 1.0) .def_309))) (let ((.def_377 (and .def_376 .def_375))) (let ((.def_378 (=> .def_377 .def_374))) (let ((.def_379 (not .def_373))) (let ((.def_380 (ite .def_359 fluent_robot_has_r0_plt1@0 fluent_robot_has_r0_plt0@0))) (let ((.def_381 (and .def_35 .def_32))) (let ((.def_382 (ite .def_381 fluent_robot_at_r0_p1@0 fluent_robot_at_r0_p0@0))) (let ((.def_383 (and .def_32 .def_40))) (let ((.def_384 (ite .def_383 false true))) (let ((.def_385 (and .def_33 .def_39))) (let ((.def_386 (ite .def_385 true .def_384))) (let ((.def_387 (and .def_32 .def_39))) (let ((.def_388 (ite .def_387 false .def_386))) (let ((.def_389 (and .def_388 .def_367 .def_382 .def_380 .def_379))) (let ((.def_390 (<= t@1 t@1))) (let ((.def_391 (< (- 1.0) t@1))) (let ((.def_392 (and .def_391 .def_390))) (let ((.def_393 (=> .def_392 .def_389))) (let ((.def_394 (<= dur_make_treatment@1 4.0))) (let ((.def_395 (<= 4.0 dur_make_treatment@1))) (let ((.def_396 (and .def_395 .def_394))) (let ((.def_397 (and .def_396 .def_375 .def_393 .def_378 .def_366 .def_348))) (let ((.def_398 (=> act_make_treatment@1 .def_397))) (let ((.def_399 (and .def_12 .def_6))) (let ((.def_400 (ite .def_399 fluent_robot_has_r0_plt1@1 fluent_robot_has_r0_plt0@1))) (let ((.def_401 (= .def_400 false))) (let ((.def_402 (=> true .def_401))) (let ((.def_403 (and .def_6 .def_14))) (let ((.def_404 (ite .def_403 fluent_pallet_at_plt1_p0@1 fluent_pallet_at_plt0_p0@1))) (let ((.def_405 (and .def_7 .def_13))) (let ((.def_406 (ite .def_405 fluent_pallet_at_plt0_p1@1 .def_404))) (let ((.def_407 (and .def_6 .def_13))) (let ((.def_408 (ite .def_407 fluent_pallet_at_plt1_p1@1 .def_406))) (let ((.def_409 (= .def_408 true))) (let ((.def_410 (=> true .def_409))) (let ((.def_411 (ite .def_399 fluent_robot_has_r0_plt1@0 fluent_robot_has_r0_plt0@0))) (let ((.def_412 (and .def_12 .def_13))) (let ((.def_413 (ite .def_412 fluent_robot_at_r0_p1@0 fluent_robot_at_r0_p0@0))) (let ((.def_414 (ite .def_13 true false))) (let ((.def_415 (and .def_414 .def_413 .def_411 .def_410 .def_350 .def_402))) (let ((.def_416 (=> act_unload_at_depot@1 .def_415))) (let ((.def_417 (and .def_18 .def_27))) (let ((.def_418 (ite .def_417 fluent_pallet_at_plt1_p0@1 fluent_pallet_at_plt0_p0@1))) (let ((.def_419 (and .def_19 .def_26))) (let ((.def_420 (ite .def_419 fluent_pallet_at_plt0_p1@1 .def_418))) (let ((.def_421 (and .def_18 .def_26))) (let ((.def_422 (ite .def_421 fluent_pallet_at_plt1_p1@1 .def_420))) (let ((.def_423 (= .def_422 false))) (let ((.def_424 (=> true .def_423))) (let ((.def_425 (and .def_22 .def_18))) (let ((.def_426 (ite .def_425 fluent_robot_has_r0_plt1@1 fluent_robot_has_r0_plt0@1))) (let ((.def_427 (= .def_426 true))) (let ((.def_428 (=> true .def_427))) (let ((.def_429 (= fluent_robot_free_r0@1 false))) (let ((.def_430 (=> true .def_429))) (let ((.def_431 (ite .def_417 fluent_pallet_at_plt1_p0@0 fluent_pallet_at_plt0_p0@0))) (let ((.def_432 (ite .def_419 fluent_pallet_at_plt0_p1@0 .def_431))) (let ((.def_433 (ite .def_421 fluent_pallet_at_plt1_p1@0 .def_432))) (let ((.def_434 (and .def_22 .def_26))) (let ((.def_435 (ite .def_434 fluent_robot_at_r0_p1@0 fluent_robot_at_r0_p0@0))) (let ((.def_436 (ite .def_26 true false))) (let ((.def_437 (and .def_436 .def_435 fluent_robot_free_r0@0 .def_433 .def_430 .def_428 .def_424))) (let ((.def_438 (=> act_load_at_depot@1 .def_437))) (let ((.def_439 (ite .def_3 fluent_position_free_p1@1 fluent_position_free_p0@1))) (let ((.def_440 (= .def_439 true))) (let ((.def_441 (=> true .def_440))) (let ((.def_442 (and .def_0 .def_10))) (let ((.def_443 (ite .def_442 fluent_treated_plt1_t0@1 fluent_treated_plt0_t0@1))) (let ((.def_444 (and .def_1 .def_9))) (let ((.def_445 (ite .def_444 fluent_treated_plt0_t1@1 .def_443))) (let ((.def_446 (and .def_0 .def_9))) (let ((.def_447 (ite .def_446 fluent_treated_plt1_t1@1 .def_445))) (let ((.def_448 (= .def_447 true))) (let ((.def_449 (=> true .def_448))) (let ((.def_450 (and .def_42 .def_0))) (let ((.def_451 (ite .def_450 fluent_robot_has_r0_plt1@1 fluent_robot_has_r0_plt0@1))) (let ((.def_452 (= .def_451 true))) (let ((.def_453 (=> true .def_452))) (let ((.def_454 (and .def_0 .def_4))) (let ((.def_455 (ite .def_454 fluent_pallet_at_plt1_p0@1 fluent_pallet_at_plt0_p0@1))) (let ((.def_456 (and .def_1 .def_3))) (let ((.def_457 (ite .def_456 fluent_pallet_at_plt0_p1@1 .def_455))) (let ((.def_458 (and .def_0 .def_3))) (let ((.def_459 (ite .def_458 fluent_pallet_at_plt1_p1@1 .def_457))) (let ((.def_460 (= .def_459 false))) (let ((.def_461 (=> true .def_460))) (let ((.def_462 (and .def_0 .def_4 .def_10))) (let ((.def_463 (ite .def_462 fluent_ready_plt1_p0_t0@1 fluent_ready_plt0_p0_t0@1))) (let ((.def_464 (and .def_1 .def_3 .def_10))) (let ((.def_465 (ite .def_464 fluent_ready_plt0_p1_t0@1 .def_463))) (let ((.def_466 (and .def_0 .def_3 .def_10))) (let ((.def_467 (ite .def_466 fluent_ready_plt1_p1_t0@1 .def_465))) (let ((.def_468 (and .def_1 .def_4 .def_9))) (let ((.def_469 (ite .def_468 fluent_ready_plt0_p0_t1@1 .def_467))) (let ((.def_470 (and .def_0 .def_4 .def_9))) (let ((.def_471 (ite .def_470 fluent_ready_plt1_p0_t1@1 .def_469))) (let ((.def_472 (and .def_1 .def_3 .def_9))) (let ((.def_473 (ite .def_472 fluent_ready_plt0_p1_t1@1 .def_471))) (let ((.def_474 (and .def_0 .def_3 .def_9))) (let ((.def_475 (ite .def_474 fluent_ready_plt1_p1_t1@1 .def_473))) (let ((.def_476 (= .def_475 false))) (let ((.def_477 (=> true .def_476))) (let ((.def_478 (ite .def_454 fluent_pallet_at_plt1_p0@0 fluent_pallet_at_plt0_p0@0))) (let ((.def_479 (ite .def_456 fluent_pallet_at_plt0_p1@0 .def_478))) (let ((.def_480 (ite .def_458 fluent_pallet_at_plt1_p1@0 .def_479))) (let ((.def_481 (and .def_42 .def_3))) (let ((.def_482 (ite .def_481 fluent_robot_at_r0_p1@0 fluent_robot_at_r0_p0@0))) (let ((.def_483 (ite .def_462 fluent_ready_plt1_p0_t0@0 fluent_ready_plt0_p0_t0@0))) (let ((.def_484 (ite .def_464 fluent_ready_plt0_p1_t0@0 .def_483))) (let ((.def_485 (ite .def_466 fluent_ready_plt1_p1_t0@0 .def_484))) (let ((.def_486 (ite .def_468 fluent_ready_plt0_p0_t1@0 .def_485))) (let ((.def_487 (ite .def_470 fluent_ready_plt1_p0_t1@0 .def_486))) (let ((.def_488 (ite .def_472 fluent_ready_plt0_p1_t1@0 .def_487))) (let ((.def_489 (ite .def_474 fluent_ready_plt1_p1_t1@0 .def_488))) (let ((.def_490 (and .def_489 .def_482 fluent_robot_free_r0@0 .def_480 .def_430 .def_477 .def_461 .def_453 .def_449 .def_441))) (let ((.def_491 (=> act_load@1 .def_490))) (let ((.def_492 (and .def_23 .def_30))) (let ((.def_493 (ite .def_492 1.0 0.0))) (let ((.def_494 (and .def_24 .def_29))) (let ((.def_495 (ite .def_494 1.0 .def_493))) (let ((.def_496 (and .def_23 .def_29))) (let ((.def_497 (ite .def_496 0.0 .def_495))) (let ((.def_498 (- fluent_battery_level_r0@0 .def_497))) (let ((.def_499 (= fluent_battery_level_r0@1 .def_498))) (let ((.def_500 (=> true .def_499))) (let ((.def_501 (and .def_21 .def_23))) (let ((.def_502 (ite .def_501 fluent_robot_at_r0_p1@1 fluent_robot_at_r0_p0@1))) (let ((.def_503 (= .def_502 false))) (let ((.def_504 (=> true .def_503))) (let ((.def_505 (and .def_21 .def_29))) (let ((.def_506 (ite .def_505 fluent_robot_at_r0_p1@1 fluent_robot_at_r0_p0@1))) (let ((.def_507 (= .def_506 true))) (let ((.def_508 (=> true .def_507))) (let ((.def_509 (<= .def_497 fluent_battery_level_r0@0))) (let ((.def_510 (ite .def_501 fluent_robot_at_r0_p1@0 fluent_robot_at_r0_p0@0))) (let ((.def_511 (= parameter_move_frompos@1 parameter_move_topos@1))) (let ((.def_512 (not .def_511))) (let ((.def_513 (and .def_512 .def_510 .def_509 .def_508 .def_504 .def_500))) (let ((.def_514 (=> act_move@1 .def_513))) (let ((.def_515 (<= fluent_battery_level_r0@0 100.0))) (let ((.def_516 (<= 0.0 fluent_battery_level_r0@0))) (let ((.def_517 (= false false))) (let ((.def_518 (= fluent_pallet_at_plt1_p0@0 false))) (let ((.def_519 (= fluent_pallet_at_plt0_p0@0 false))) (let ((.def_520 (= fluent_treated_plt1_t1@0 false))) (let ((.def_521 (= fluent_treated_plt0_t1@0 false))) (let ((.def_522 (= fluent_treated_plt1_t0@0 false))) (let ((.def_523 (= fluent_treated_plt0_t0@0 false))) (let ((.def_524 (= fluent_ready_plt1_p1_t1@0 false))) (let ((.def_525 (= fluent_ready_plt0_p1_t1@0 false))) (let ((.def_526 (= fluent_ready_plt1_p0_t1@0 false))) (let ((.def_527 (= fluent_ready_plt0_p0_t1@0 false))) (let ((.def_528 (= fluent_ready_plt1_p1_t0@0 false))) (let ((.def_529 (= fluent_ready_plt0_p1_t0@0 false))) (let ((.def_530 (= fluent_ready_plt1_p0_t0@0 false))) (let ((.def_531 (= fluent_ready_plt0_p0_t0@0 false))) (let ((.def_532 (= fluent_robot_has_r0_plt1@0 false))) (let ((.def_533 (= fluent_robot_has_r0_plt0@0 false))) (let ((.def_534 (= fluent_robot_at_r0_p0@0 false))) (let ((.def_535 (= true true))) (let ((.def_536 (= fluent_position_free_p1@0 true))) (let ((.def_537 (= fluent_position_free_p0@0 true))) (let ((.def_538 (= 0.0 0.0))) (let ((.def_539 (= 1.0 1.0))) (let ((.def_540 (= fluent_battery_level_r0@0 8.0))) (let ((.def_541 (= fluent_pallet_at_plt1_p1@0 true))) (let ((.def_542 (= fluent_pallet_at_plt0_p1@0 true))) (let ((.def_543 (= fluent_robot_free_r0@0 true))) (let ((.def_544 (= fluent_robot_at_r0_p1@0 true))) (let ((.def_545 (and .def_544 .def_543 .def_542 .def_541 .def_540 .def_538 .def_539 .def_539 .def_538 .def_535 .def_537 .def_536 .def_535 .def_535 .def_534 .def_533 .def_532 .def_531 .def_530 .def_529 .def_528 .def_527 .def_526 .def_525 .def_524 .def_523 .def_522 .def_521 .def_520 .def_519 .def_518 .def_517 .def_517 .def_517 .def_516 .def_515))) (let ((.def_546 (and .def_545 .def_514 .def_491 .def_438 .def_416 .def_398 .def_331 .def_330 true .def_301 .def_42 .def_41 .def_38 .def_35 .def_34 .def_31 .def_28 .def_25 .def_22 .def_21 .def_20 .def_17 .def_16 .def_15 .def_12 .def_11 .def_8 .def_5 .def_2 true))) .def_546))))))))))))))))))))))))))))))))))))))))))))))))))))))))))))))))))))))))))))))))))))))))))))))))))))))))))))))))))))))))))))))))))))))))))))))))))))))))))))))))))))))))))))))))))))))))))))))))))))))))))))))))))))))))))))))))))))))))))))))))))))))))))))))))))))))))))))))))))))))))))))))))))))))))))))))))))))))))))))))))))))))))))))))))))))))))))))))))))))))))))))))))))))))))))))))))))))))))))))))))))))))))))))))))))))))))))))))))))))))))))))))))))))))))))))))))))))))))))))))))))))))))))))))))))))))))))))))))))))))))))))))))))))))))))))))))))))
(check-sat)

--------------------------------------------------------------------------------
